(declare-fun var0 () String)
(assert (str.in.re var0 (re.++ (re.* (re.+ (str.to.re "ee"))) (re.++ (re.union (re.* (str.to.re "cc")) (re.+ (str.to.re "ddd"))) (re.++ (re.* (re.union (str.to.re "aa") (str.to.re "bbb"))) (re.++ (re.* (re.+ (str.to.re "9"))) (re.++ (re.union (re.+ (str.to.re "777")) (re.* (str.to.re "888"))) (re.++ (re.* (re.* (str.to.re "666"))) (re.++ (re.* (re.* (str.to.re "55"))) (re.++ (re.union (re.+ (str.to.re "33")) (re.* (str.to.re "44"))) (re.++ (re.union (re.+ (str.to.re "11")) (re.* (str.to.re "222"))) (re.* (re.* (str.to.re "0"))))))))))))))
(assert (<= 151 (str.len var0)))
(check-sat)